/*********************************************
 * OPL 12.6.0.0 Data
 * Author: Adrian Rodriguez Bazaga, Pau Rodriguez Esmerats
 * Creation Date: 06/12/2017 at 23:03:04
 *********************************************/

nNurses=238;
maxConsec=2;
maxPresence=7;
maxHours=5;
minHours=1;
hours=24;
demand= [41 41 53 56 41 53 56 44 35 21 3 7 5 9 5 6 4 3 2 2 34 64 30 53  ];
